12      4       
11      12      13      12      
0       0       0       0       0       4       2       3       4       5       
4       0       10      4       0       1       7       
10      0       0       0       1       2       7       8       
3       9       5       8       4       2       7       8       
5       8       4       9       5       1       6       
4       4       9       5       9       2       9       10      
5       7       8       3       1       1       10      
9       2       0       0       0       1       9       
4       1       9       10      8       1       11      
6       7       7       10      9       1       12      
4       0       1       6       0       1       12      
0       0       0       0       0       0       
